
List of user-set options:

                                    Name   Value                used
                           linear_solver = mumps                 yes
                  ma57_automatic_scaling = yes                    no
                                max_iter = 2000                  yes
                             mu_strategy = adaptive              yes
                             output_file = DynamicOptimization_lMtildeState_GPOPS_IPOPTinfo.txt  yes
                             print_level = 5                     yes
                      print_user_options = yes                   yes
                                     tol = 1e-005                yes
This is Ipopt version 3.11.0, running with linear solver mumps.

Number of nonzeros in equality constraint Jacobian...:   258727
Number of nonzeros in inequality constraint Jacobian.:      172
Number of nonzeros in Lagrangian Hessian.............:    97371

Total number of variables............................:    49470
                     variables with only lower bounds:        0
                variables with lower and upper bounds:    49470
                     variables with only upper bounds:        0
Total number of equality constraints.................:    37387
Total number of inequality constraints...............:       87
        inequality constraints with only lower bounds:        0
   inequality constraints with lower and upper bounds:       87
        inequality constraints with only upper bounds:        0

iter    objective    inf_pr   inf_du lg(mu)  ||d||  lg(rg) alpha_du alpha_pr  ls
   0 9.9999900e-003 3.31e+000 3.35e-001   0.0 0.00e+000    -  0.00e+000 0.00e+000   0
   1 1.1824362e-001 3.18e+000 9.52e+000  -6.1 2.33e+000    -  4.24e-003 4.65e-002h  1
   2 2.0762127e+000 4.40e+000 7.93e+001  -0.8 7.85e+000    -  1.22e-001 2.49e-001f  1
   3 4.9166972e+000 3.12e+000 5.51e+001  -1.8 8.12e+000    -  2.05e-001 3.50e-001f  1
   4 7.1308101e+000 2.11e+000 5.02e+001  -6.2 6.02e+000    -  3.48e-001 3.68e-001h  1
   5 1.1613496e+001 1.27e+000 6.74e+001  -2.5 4.48e+000    -  3.32e-001 1.00e+000h  1
   6 1.7596908e+001 4.13e+000 1.29e+001  -1.5 6.83e+000    -  3.12e-001 8.76e-001f  1
   7 5.6532502e+001 2.51e+001 1.11e+002  -0.8 7.34e+001    -  1.47e-001 5.30e-001f  1
   8 6.2960442e+001 2.30e+001 1.01e+002  -0.8 7.37e+001    -  3.84e-002 8.72e-002f  1
   9 8.9311458e+001 1.51e+001 5.69e+001  -0.8 6.81e+001    -  1.23e-001 3.87e-001f  1
iter    objective    inf_pr   inf_du lg(mu)  ||d||  lg(rg) alpha_du alpha_pr  ls
  10 1.3278983e+002 2.98e+000 6.91e+001  -0.8 4.35e+001    -  3.97e-001 1.00e+000f  1
  11 1.3285635e+002 2.35e+000 3.19e+001  -0.8 4.91e-001    -  9.90e-001 1.00e+000h  1
  12 6.7561354e+001 1.04e+001 2.33e+000  -1.5 6.53e+001    -  9.79e-001 1.00e+000f  1
  13 6.7247382e+001 5.09e-001 3.14e-001  -1.6 3.14e-001   0.0 1.00e+000 1.00e+000h  1
  14 2.3886789e+001 9.57e+000 4.68e-001  -7.6 7.73e+001    -  5.89e-001 5.61e-001f  1
  15 2.4038053e+001 1.15e+000 2.65e-001  -2.1 1.51e-001  -0.5 1.00e+000 1.00e+000h  1
  16 2.0002035e+001 5.15e-001 4.48e-001  -3.0 4.04e+000  -1.0 9.57e-001 1.00e+000f  1
  17 1.6065911e+001 7.31e-001 7.11e-001  -3.1 9.06e+000  -1.4 9.88e-001 4.34e-001f  1
  18 1.3712266e+001 3.90e-001 8.03e-001  -2.8 2.35e+000  -1.0 1.00e+000 1.00e+000h  1
  19 1.2161358e+001 2.12e-001 1.12e+000  -2.9 1.87e+000  -1.5 1.00e+000 8.29e-001h  1
iter    objective    inf_pr   inf_du lg(mu)  ||d||  lg(rg) alpha_du alpha_pr  ls
  20 1.0051210e+001 6.64e-001 1.91e-001  -3.1 2.11e+000  -2.0 1.00e+000 1.00e+000h  1
  21 9.0278161e+000 7.67e+000 9.38e-002  -3.1 1.02e+000  -2.4 9.43e-001 1.00e+000h  1
  22 8.2875316e+000 1.12e-001 1.48e-001  -3.3 7.41e-001  -2.0 1.00e+000 9.99e-001h  1
  23 6.8634459e+000 3.14e-001 2.39e-001  -3.7 1.55e+000  -2.5 1.00e+000 9.17e-001h  1
  24 6.1188365e+000 2.28e-001 1.14e-001  -3.9 7.45e-001  -2.1 1.00e+000 9.99e-001h  1
  25 5.2161919e+000 1.13e+000 6.32e-002  -4.1 9.04e-001  -2.5 1.00e+000 9.99e-001h  1
  26 5.0031750e+000 6.34e-001 2.32e-001  -4.4 7.88e-001  -2.1 1.00e+000 1.00e+000h  1
  27 5.0896734e+000 2.85e-001 5.50e-001  -4.1 3.57e-001  -1.7 1.00e+000 1.00e+000h  1
  28 4.7465445e+000 1.86e-001 7.03e-002  -4.8 3.43e-001  -2.2 1.00e+000 1.00e+000h  1
  29 4.9886652e+000 1.25e-001 8.72e-003  -4.2 2.58e-001  -2.6 1.00e+000 1.00e+000h  1
iter    objective    inf_pr   inf_du lg(mu)  ||d||  lg(rg) alpha_du alpha_pr  ls
  30 4.8681127e+000 5.05e-001 1.27e-001  -4.3 5.70e-001  -3.1 1.00e+000 9.93e-001h  1
  31 5.1995223e+000 3.09e-001 4.20e-002  -4.0 4.01e-001  -2.7 1.00e+000 1.00e+000h  1
  32 5.1275878e+000 1.76e-002 9.04e-003  -4.1 7.70e-002  -2.3 1.00e+000 1.00e+000h  1
  33 5.0876262e+000 3.74e-003 1.99e-003  -4.1 7.21e-002  -2.7 1.00e+000 1.00e+000h  1
  34 4.7451408e+000 3.17e-001 1.06e-002  -4.7 7.74e-001  -3.2 7.82e-001 6.73e-001h  1
  35 4.6419527e+000 7.64e-002 4.89e-003  -4.5 1.46e-001  -2.8 9.65e-001 1.00e+000h  1
  36 4.5487100e+000 1.84e-001 5.39e-003  -4.6 1.87e-001  -3.3 1.00e+000 9.97e-001h  1
  37 4.7089608e+000 2.76e-001 2.07e-002  -4.4 2.25e-001  -2.8 1.00e+000 1.00e+000h  1
  38 4.6668353e+000 8.49e-002 1.60e-002  -4.5 1.33e-001  -2.4 1.00e+000 1.00e+000h  1
  39 4.4507978e+000 1.43e-001 1.14e-002  -5.0 2.16e-001  -2.9 9.92e-001 1.00e+000h  1
iter    objective    inf_pr   inf_du lg(mu)  ||d||  lg(rg) alpha_du alpha_pr  ls
  40 4.4099355e+000 6.10e-002 6.00e-003  -5.1 1.32e-001  -2.5 9.98e-001 1.00e+000h  1
  41 4.4533356e+000 2.29e-002 2.12e-003  -4.9 1.59e-001  -2.9 1.00e+000 1.00e+000h  1
  42 4.4006479e+000 3.89e-002 1.65e-003  -5.1 1.31e-001  -3.4 1.00e+000 9.98e-001h  1
  43 4.4616477e+000 2.44e-002 1.41e-003  -4.8 7.08e-002  -3.0 1.00e+000 1.00e+000h  1
  44 4.4376701e+000 7.76e-001 3.28e-002  -4.9 7.15e-001  -3.5 8.03e-001 1.00e+000h  1
  45 4.4139292e+000 1.68e-001 1.63e-002  -5.0 2.80e-001  -3.1 9.97e-001 1.00e+000h  1
  46 4.4895484e+000 1.13e-001 2.52e-003  -4.8 1.41e-001  -3.5 8.84e-001 1.00e+000h  1
  47 4.4657924e+000 4.68e-003 3.48e-004  -4.9 2.38e-002  -2.2 1.00e+000 1.00e+000h  1
  48 4.3725507e+000 4.32e-002 3.73e-003  -5.4 9.32e-002  -2.7 9.85e-001 1.00e+000h  1
  49 4.3979290e+000 2.01e-002 1.03e-003  -5.1 8.28e-002  -3.2 1.00e+000 1.00e+000h  1
iter    objective    inf_pr   inf_du lg(mu)  ||d||  lg(rg) alpha_du alpha_pr  ls
  50 4.3649510e+000 7.29e-002 1.03e-003  -5.3 1.76e-001  -3.6 9.58e-001 1.00e+000h  1
  51 4.3527143e+000 1.04e-002 3.41e-004  -5.4 6.45e-002  -3.2 1.00e+000 1.00e+000h  1
  52 4.3825450e+000 1.73e-002 6.39e-004  -5.2 1.24e-001  -3.7 1.00e+000 1.00e+000h  1
  53 4.3801646e+000 1.91e-001 3.17e-003  -5.3 8.49e-001  -4.2 1.35e-001 1.76e-001h  1
  54 4.3766518e+000 1.02e+000 6.88e-003  -5.3 1.00e+000  -3.7 3.49e-001 3.04e-001h  1
  55 4.3708681e+000 9.05e-002 1.96e-003  -5.3 1.10e-001  -2.4 4.01e-001 1.00e+000h  1
  56 4.4166032e+000 4.57e-002 1.04e-003  -5.0 9.24e-002  -2.9 1.00e+000 1.00e+000h  1
  57 4.4018063e+000 2.29e-002 5.73e-003  -5.1 1.97e-001  -3.4 1.00e+000 1.00e+000h  1
  58 4.4017189e+000 2.19e-002 4.11e-003  -5.1 2.19e+000  -3.8 4.22e-001 5.90e-002h  1
  59 4.4011110e+000 1.62e-002 1.60e-003  -5.1 2.10e-001  -3.4 1.00e+000 5.84e-001h  1
iter    objective    inf_pr   inf_du lg(mu)  ||d||  lg(rg) alpha_du alpha_pr  ls
  60 4.3597127e+000 4.22e-001 1.57e-003  -5.3 4.19e-001  -3.9 1.00e+000 1.00e+000h  1
  61 4.3508084e+000 8.41e-002 4.94e-003  -5.4 1.93e-001  -3.5 8.96e-001 1.00e+000h  1
  62 4.3409909e+000 1.82e-002 4.12e-004  -5.6 6.67e-002  -3.0 1.00e+000 1.00e+000h  1
  63 4.3254843e+000 8.54e-003 2.38e-004  -6.0 5.39e-002  -2.6 1.00e+000 9.98e-001h  1
  64 4.3203128e+000 1.83e-003 2.82e-004  -6.4 4.25e-002  -2.2 1.00e+000 1.00e+000h  1
  65 4.3185106e+000 2.66e-004 3.48e-004  -6.6 1.98e-002  -1.8 1.00e+000 1.00e+000h  1
  66 4.3187506e+000 5.04e-003 7.75e-004  -6.3 1.35e-001  -2.2 1.00e+000 9.52e-001h  1
  67 4.3172412e+000 4.45e-002 1.07e-002  -6.4 5.38e-001  -2.7 9.27e-001 6.41e-001h  1
  68 4.3384064e+000 3.43e-002 7.19e-002  -5.5 3.87e-001  -3.2 9.61e-002 7.39e-001f  1
  69 4.3376109e+000 3.33e-002 6.99e-002  -6.2 7.32e-001  -3.7 2.41e-001 3.13e-002h  1
iter    objective    inf_pr   inf_du lg(mu)  ||d||  lg(rg) alpha_du alpha_pr  ls
  70 4.3309027e+000 6.37e-001 5.10e-002  -6.2 1.01e+000  -4.1 4.22e-001 2.74e-001h  1
  71 4.3287717e+000 1.64e+000 4.35e-002  -6.2 1.58e+000  -3.7 1.94e-001 1.48e-001h  1
  72 4.3212136e+000 6.64e-001 1.26e-002  -6.2 1.06e-001  -3.3 6.58e-001 7.08e-001h  1
  73 4.3209575e+000 7.08e-001 1.15e-002  -6.2 5.40e-001  -3.8 2.05e-001 9.72e-002h  2
  74 4.3197774e+000 3.96e-001 4.72e-003  -6.2 1.10e-001  -3.3 1.00e+000 6.19e-001h  1
  75 4.3192357e+000 1.37e-002 4.91e-005  -6.2 3.89e-002  -2.9 1.00e+000 1.00e+000h  1
  76 4.3191004e+000 3.62e-002 1.05e-003  -6.2 4.20e-001  -3.4 8.12e-001 6.40e-001h  1
  77 4.3190784e+000 2.31e-002 8.09e-004  -6.2 1.33e-001  -3.0 8.18e-001 3.97e-001f  1
  78 4.3190493e+000 1.06e-003 3.73e-004  -6.2 5.69e-002  -2.5 1.00e+000 1.00e+000f  1
  79 4.3241565e+000 8.24e-003 4.03e-004  -5.9 4.37e-002  -3.0 1.00e+000 1.00e+000h  1
iter    objective    inf_pr   inf_du lg(mu)  ||d||  lg(rg) alpha_du alpha_pr  ls
  80 4.3221381e+000 2.20e-002 1.28e-004  -6.0 4.71e-002  -3.5 1.00e+000 1.00e+000h  1
  81 4.3220662e+000 4.46e-002 4.82e-004  -6.0 3.43e-001    -  1.00e+000 5.00e-001h  2
  82 4.3220298e+000 1.60e-002 2.60e-005  -6.0 6.51e-002  -4.0 1.00e+000 1.00e+000h  1
  83 4.3220287e+000 2.92e-002 8.49e-005  -6.0 3.73e+000  -4.4 2.09e-001 2.04e-002h  5
  84 4.3220182e+000 4.42e-002 8.79e-005  -6.0 1.64e-001  -4.0 1.00e+000 1.00e+000H  1
  85 4.3220144e+000 1.83e-002 2.18e-005  -6.0 9.35e-002  -4.5 1.00e+000 1.00e+000h  1
  86 4.3220088e+000 1.68e-002 1.47e-004  -6.0 3.30e-001    -  1.00e+000 1.00e+000h  1
  87 4.3220134e+000 5.83e-004 1.36e-004  -6.0 6.45e-002  -3.2 1.00e+000 1.00e+000h  1
  88 4.3219999e+000 3.43e-003 1.95e-004  -6.0 1.96e-001  -3.6 1.00e+000 1.00e+000h  1
  89 4.3219530e+000 1.85e-002 1.60e-003  -6.0 2.59e+000  -4.1 3.44e-001 2.03e-001h  1
iter    objective    inf_pr   inf_du lg(mu)  ||d||  lg(rg) alpha_du alpha_pr  ls
  90 4.3219420e+000 1.56e-002 1.78e-003  -6.0 9.79e-001    -  9.19e-001 1.59e-001h  1
  91 4.3219380e+000 3.42e-003 6.39e-004  -6.0 1.47e-001    -  6.73e-001 1.00e+000h  1
  92 4.3219397e+000 2.18e-003 2.04e-004  -6.0 1.53e-001    -  1.00e+000 1.00e+000h  1
  93 4.3219464e+000 2.09e-005 4.04e-006  -6.0 1.77e-002    -  1.00e+000 1.00e+000h  1

Number of Iterations....: 93

                                   (scaled)                 (unscaled)
Objective...............:  4.3219464183682499e+000   4.3219464183682499e+000
Dual infeasibility......:  4.0439059425392721e-006   4.0439059425392721e-006
Constraint violation....:  6.3071447443988609e-006   2.0930275585584468e-005
Complementarity.........:  1.2308775245508356e-006   1.2308775245508356e-006
Overall NLP error.......:  6.3071447443988609e-006   2.0930275585584468e-005


Number of objective function evaluations             = 107
Number of objective gradient evaluations             = 94
Number of equality constraint evaluations            = 107
Number of inequality constraint evaluations          = 107
Number of equality constraint Jacobian evaluations   = 94
Number of inequality constraint Jacobian evaluations = 94
Number of Lagrangian Hessian evaluations             = 93
Total CPU secs in IPOPT (w/o function evaluations)   =    101.572
Total CPU secs in NLP function evaluations           =    701.086

EXIT: Optimal Solution Found.
